100
1000
200
200
200
200
200
199
199
198
198
198
197
197
197
196
196
194
193
192
192
191
191
190
189
189
189
189
189
189
189
188
187
187
187
186
186
185
184
182
182
181
179
179
178
178
177
177
176
176
174
174
174
174
174
173
172
172
171
170
170
170
170
168
168
167
167
167
166
166
166
165
165
165
165
164
164
164
163
163
163
163
162
162
161
161
160
160
160
160
159
158
157
156
155
154
153
153
152
151
151
150
